p edge 28 210
n 1 23
n 2 17
n 3 12
n 4 22
n 5 18
n 6 8
n 7 16
n 8 28
n 9 4
n 10 19
n 11 7
n 12 13
n 13 24
n 14 9
n 15 5
n 16 10
n 17 21
n 18 6
n 19 25
n 20 29
n 21 2
n 22 27
n 23 11
n 24 20
n 25 26
n 26 15
n 27 14
n 28 3
e 1 4
e 1 5
e 1 7
e 1 9
e 1 10
e 1 11
e 1 12
e 1 14
e 1 16
e 1 17
e 1 18
e 1 23
e 1 24
e 1 26
e 1 27
e 2 7
e 2 8
e 2 9
e 2 11
e 2 12
e 2 13
e 2 14
e 2 16
e 2 18
e 2 19
e 2 22
e 2 23
e 2 25
e 2 26
e 2 27
e 3 5
e 3 9
e 3 10
e 3 11
e 3 13
e 3 14
e 3 16
e 3 17
e 3 18
e 3 19
e 3 20
e 3 22
e 3 23
e 3 24
e 3 25
e 4 6
e 4 9
e 4 11
e 4 13
e 4 14
e 4 15
e 4 16
e 4 18
e 4 19
e 4 21
e 4 22
e 4 23
e 4 25
e 4 28
e 5 6
e 5 7
e 5 8
e 5 11
e 5 15
e 5 16
e 5 19
e 5 22
e 5 23
e 5 25
e 5 26
e 5 27
e 5 28
e 6 8
e 6 9
e 6 10
e 6 11
e 6 12
e 6 13
e 6 18
e 6 19
e 6 20
e 6 24
e 6 25
e 6 26
e 6 27
e 7 9
e 7 10
e 7 11
e 7 13
e 7 15
e 7 18
e 7 19
e 7 20
e 7 21
e 7 24
e 7 25
e 7 28
e 8 9
e 8 10
e 8 11
e 8 14
e 8 15
e 8 16
e 8 17
e 8 18
e 8 21
e 8 23
e 8 24
e 8 28
e 9 15
e 9 17
e 9 20
e 9 22
e 9 23
e 9 24
e 9 25
e 9 26
e 10 12
e 10 13
e 10 14
e 10 15
e 10 18
e 10 21
e 10 22
e 10 23
e 10 25
e 10 26
e 11 12
e 11 13
e 11 14
e 11 17
e 11 20
e 11 21
e 11 22
e 12 15
e 12 16
e 12 17
e 12 19
e 12 20
e 12 22
e 12 23
e 12 24
e 12 25
e 12 28
e 13 15
e 13 16
e 13 17
e 13 23
e 13 24
e 13 26
e 13 27
e 13 28
e 14 15
e 14 19
e 14 20
e 14 24
e 14 25
e 14 26
e 14 27
e 14 28
e 15 16
e 15 17
e 15 19
e 15 20
e 15 22
e 15 27
e 16 18
e 16 20
e 16 21
e 16 24
e 16 25
e 16 26
e 17 18
e 17 19
e 17 21
e 17 25
e 17 26
e 17 27
e 17 28
e 18 19
e 18 20
e 18 22
e 18 27
e 18 28
e 19 21
e 19 23
e 19 24
e 19 26
e 20 21
e 20 23
e 20 26
e 20 27
e 20 28
e 21 22
e 21 23
e 21 24
e 21 25
e 21 26
e 21 27
e 22 24
e 22 26
e 22 27
e 22 28
e 23 27
e 23 28
e 24 27
e 24 28
e 25 27
e 25 28
e 26 28
